Route 1: 100 6 68 79 34 65

Route 2: 83 8 5 85 91 1

Route 3: 62 11 47 90 20 66 35

Route 4: 95 87 57 37 97

Route 5: 78 29 81 9 33 70 32

Route 6: 12 76 80 3 77 54 56 74

Route 7: 67 23 43 38

Route 8: 14 44 72 27 26 55

Route 9: 21 75 15 4

Route 10: 30 63 64

Route 11: 28 82 7 19 49 48 36

Route 12: 98 42 93 86 46 17

Route 13: 84 13 53 25 39

Route 14: 71 51 10 89 60 45

Route 15: 52 16 61 59 58 96

Route 16: 99 92 2 73 40 22 41

Route 17: 88 31 69 18 94 50 24

Vehicles: 17

Distance: 2141.39

